M = 10;
N = 6;
R = 3;
U = 7;
con =  [|false,true,true,true,false,false,
         |true,false,false,false,false,false,
         |true,false,false,true,false,true,
         |true,false,true,false,false,false,
         |false,false,false,false,false,true,
         |false,false,true,false,true,false|];


